Ba1 Cd2 P2
1.0
   4.4372007001    0.0000000000    0.0000000000
  -2.2186003501    3.8427285280    0.0000000000
   0.0000000000    0.0000000000    7.6148527900
Ba Cd P
1 2 2
direct
   0.0000000000    0.0000000000    0.0000000000 Ba
   0.6666666667    0.3333333333    0.3696880400 Cd
   0.3333333333    0.6666666667    0.6303119600 Cd
   0.6666666667    0.3333333333    0.7315714500 P
   0.3333333333    0.6666666667    0.2684285500 P
